c status 106 1469386516880
c status 74 1469386516884
c status 70 1469386516921
c status 69 1469386516945
c status 68 1469386517024
c status 66 1469386519140
s td 41 66 144
b 1 4 16 28 40 121 97 109 133 6 18 41 26 33 11 1
b 2 16 28 40 121 97 109 133 6 18 19 41 27 26 33 42 20 11 1
b 3 28 40 121 97 109 34 133 6 18 19 29 41 27 26 33 42 20 43 11 1
b 4 40 121 97 109 34 49 133 6 18 19 29 41 27 26 33 42 44 20 43 11 1
b 5 121 97 109 34 49 133 6 18 19 29 41 141 27 26 46 31 33 42 122 15 44 23 20 38 137 9 43 126 11 1
b 6 22 8 35 21 37 109 49 7 29 51 106 27 26 32 31 33 30 92 138 132 136 23 20 24 38 120 98 111 125 9
b 7 50 35 21 37 97 34 49 7 99 10 51 119 135 23 105 113 126 139 85 2
b 8 8 35 21 37 109 34 49 7 118 10 6 17 18 19 29 51 106 110 27 13 26 32 31 33 30 92 138 132 135 124 136 15 23 20 24 38 39 120 96 98 111 125 137 9 12 11
b 9 35 21 37 97 109 34 49 7 118 99 10 6 17 18 19 29 51 106 110 41 27 13 26 46 48 32 31 33 42 30 45 92 138 132 119 135 124 136 15 44 23 20 24 38 39 105 120 96 98 111 125 137 9 12 113 43 126 139 11 85 2
b 10 97 109 34 49 7 133 118 99 10 6 17 18 19 29 51 106 110 41 141 27 13 26 46 48 32 31 33 42 30 45 92 107 138 132 119 135 124 122 136 15 44 23 20 24 38 39 105 120 96 98 111 125 137 9 12 113 43 126 139 11 85 1 2
b 11 109 34 49 7 133 118 99 10 6 17 18 19 29 140 51 106 110 41 141 27 13 26 46 48 32 31 33 42 30 45 92 107 138 132 119 135 124 122 136 15 44 23 20 24 38 39 105 120 96 98 111 125 137 9 12 113 43 126 139 11 85 1 2
b 12 34 49 7 133 118 99 10 6 17 18 19 29 140 51 106 110 41 141 27 13 26 46 48 32 31 33 42 30 45 92 107 138 132 119 135 124 122 136 104 15 44 23 20 24 38 39 105 120 96 98 111 125 137 9 12 113 43 126 139 11 73 85 1 2
b 13 116 117 114 142 130 131 115 144 129 103 100 102 108 18 106 110 41 27 13 46 32 107 104 105 111 113 25
b 14 117 5 114 142 130 131 115 144 129 143 103 100 102 108 18 19 29 106 110 41 27 13 46 48 32 33 42 107 104 15 105 111 113 25 2 61
b 15 5 114 142 130 131 115 144 129 143 103 100 102 108 99 18 19 29 140 106 110 41 141 27 13 46 48 32 31 33 42 107 138 132 135 136 104 15 44 105 111 137 113 139 25 2 61
b 16 127 128 114 142 130 131 129 100 95 118 17 29 140 51 141 13 48 32 119 124 122 24 38 120 98 111 125 113 43 126 11 25
b 17 128 114 142 130 131 115 129 143 100 102 95 118 99 17 18 29 140 51 141 13 26 48 32 33 30 119 124 122 15 44 24 38 39 120 96 98 111 125 12 113 43 126 11 25 61
b 18 114 142 130 131 115 144 129 143 103 100 102 108 95 118 99 17 18 19 29 140 51 106 110 41 141 27 13 26 46 48 32 31 33 42 30 107 138 132 119 135 124 122 136 104 15 44 24 38 39 105 120 96 98 111 125 137 12 113 43 126 139 11 25 2 61
b 19 142 130 131 115 144 129 143 103 100 102 108 95 133 118 99 17 18 19 29 140 51 106 110 41 141 27 13 26 46 48 32 31 33 42 30 107 138 132 119 135 124 122 136 104 15 44 24 38 39 105 120 96 98 111 125 137 12 113 43 126 139 11 25 2 61
b 20 115 144 129 143 103 100 102 108 95 133 118 99 17 18 19 29 140 51 106 110 41 141 27 13 26 46 48 32 31 33 42 30 45 107 138 132 119 135 124 122 136 104 15 44 24 38 39 105 120 96 98 111 125 137 12 113 43 126 139 11 25 2 61
b 21 93 94 103 100 102 108 95 99 140 106 13 30 45 92 107 132 119 122 23 38 96 98 125 137 9 73 85
b 22 94 103 100 102 108 95 99 10 6 140 106 110 141 13 46 31 30 45 92 107 138 132 119 135 124 122 15 23 24 38 39 120 96 98 125 137 9 126 73 85
b 23 103 100 102 108 95 133 118 99 10 6 17 18 19 29 140 51 106 110 41 141 27 13 26 46 48 32 31 33 42 30 45 92 107 138 132 119 135 124 122 136 104 15 44 23 24 38 39 105 120 96 98 111 125 137 9 12 113 43 126 139 11 25 73 85 2 61
b 24 108 95 7 133 118 99 10 6 17 18 19 29 140 51 106 110 41 141 27 13 26 46 48 32 31 33 42 30 45 92 107 138 132 119 135 124 122 136 104 15 44 23 20 24 38 39 105 120 96 98 111 125 137 9 12 113 43 126 139 11 25 73 85 2 61
b 25 7 133 118 99 10 6 17 18 19 29 140 51 106 110 41 141 27 13 26 46 48 32 31 33 42 30 45 92 107 138 132 119 135 124 122 136 104 15 44 23 20 24 38 39 105 120 96 98 111 125 137 9 12 113 43 126 139 11 25 73 85 1 2 61
b 26 74 76 71 75 72 3 101 123 63 65 67 70 64 66 69 59 89 87 88 58 60 73 2
b 27 76 71 75 72 3 101 123 63 65 67 70 64 66 69 59 62 89 87 91 88 58 60 73 2 61
b 28 71 75 72 3 101 123 63 65 67 70 64 66 69 59 62 89 87 91 88 58 60 56 79 84 86 55 73 2 61
b 29 112 134 75 72 3 101 123 57 70 68 59 87 91 58 56 79 83 90 1
b 30 134 75 72 3 101 123 57 70 68 59 62 89 87 91 58 60 56 79 83 86 90 1
b 31 75 72 3 101 123 57 63 65 67 70 68 64 66 69 59 62 89 87 91 88 58 60 56 79 84 83 86 55 90 25 73 1 2 61
b 32 101 123 57 63 65 67 70 68 64 66 69 59 62 89 87 91 88 58 60 56 79 84 82 83 86 55 90 25 73 1 2 61
b 33 47 14 53 77 80 36 52 54 57 65 64 66 59 62 58 60 56 82 55
b 34 14 53 77 80 36 52 54 57 63 65 64 66 59 62 58 60 56 82 55 1 2
b 35 53 77 80 36 52 54 57 63 65 67 68 64 66 69 59 62 58 60 56 79 84 82 55 1 2
b 36 81 78 77 80 36 52 54 57 65 67 66 89 87 91 88 84 82 83 86 90
b 37 78 77 80 36 52 54 57 63 65 67 68 64 66 89 87 91 88 84 82 83 86 90
b 38 77 80 36 52 54 57 63 65 67 68 64 66 69 59 62 89 87 91 88 58 60 56 79 84 82 83 86 55 90 73 1 2 61
b 39 36 52 54 57 63 65 67 68 64 66 69 59 62 89 87 91 88 58 60 56 79 84 82 83 86 55 90 25 73 1 2 61
b 40 54 57 63 65 67 70 68 64 66 69 59 62 89 87 91 88 58 60 56 79 84 82 83 86 55 90 25 73 1 2 61
b 41 91 88 58 60 56 79 84 82 83 86 55 90 25 73 85 1 2 61
1 2
2 3
3 4
4 5
5 10
10 11
11 12
12 25
25 24
24 23
23 20
20 19
19 18
10 9
18 15
9 8
18 17
23 22
15 14
17 16
8 6
14 13
22 21
9 7
25 41
41 32
32 31
32 40
40 39
39 38
31 28
38 35
28 27
27 26
38 37
31 30
35 34
37 36
30 29
34 33
